c This is a CNF SAT formula in the DIMACS CNF format,
c produced with the bc2cnf translator by Tommi Junttila;
c see http://users.ics.aalto.fi/tjunttil/circuits/index.html
c phi_Gamma <-> 1
c phi_T_feature_det <-> 1
c phi_T_transitions <-> 1
c phi_T_transitions_consistency <-> 1
c phi_T <-> 1
c phi_sim_leaves <-> 1
c phi_sim_transition <-> 1
c phi_sim <-> 1
c FORMULA <-> 1
c pi_1_9 <-> 2
c pi_0_9 <-> 13
c pi_1_8 <-> 28
c pi_0_8 <-> 39
c pi_1_3 <-> 54
c pi_1_7 <-> 54
c pi_0_3 <-> 65
c pi_0_7 <-> 65
c pi_1_6 <-> 80
c pi_0_6 <-> 82
c pi_1_5 <-> 90
c pi_0_5 <-> 97
c pi_1_4 <-> 111
c pi_0_4 <-> 117
c pi_1_2 <-> 131
c pi_0_2 <-> 137
c pi_1_1 <-> 151
c pi_0_1 <-> 157
c pi_1_0 <-> 171
c pi_0_0 <-> 173
c alp_Class_3_0 <-> 181
c alp_Class_2_0 <-> 181
c alp_Class_0_0 <-> 181
c alp_Class_3_1 <-> 181
c alp_Class_2_1 <-> 181
c alp_Class_0_1 <-> 181
c alp_Class_2_2 <-> 181
c alp_Class_1_2 <-> 181
c alp_Class_0_2 <-> 181
c alp_Class_2_3 <-> 181
c alp_Class_1_3 <-> 181
c alp_Class_0_3 <-> 181
c alp_Class_3_4 <-> 181
c alp_Class_2_4 <-> 181
c alp_Class_0_4 <-> 181
c alp_Class_3_5 <-> 181
c alp_Class_2_5 <-> 181
c alp_Class_1_5 <-> 181
c alp_Class_2_6 <-> 181
c alp_Class_1_6 <-> 181
c alp_Class_0_6 <-> 181
c alp_Class_2_7 <-> 181
c alp_Class_1_7 <-> 181
c alp_Class_0_7 <-> 181
c alp_Class_3_8 <-> 181
c alp_Class_2_8 <-> 181
c alp_Class_0_8 <-> 181
c alp_Class_3_9 <-> 181
c alp_Class_2_9 <-> 181
c alp_Class_1_9 <-> 181
c alp_Class_0_5 <-> 182
c alp_Class_0_9 <-> 182
c Class_P0 <-> 182
c alp_Class_3_2 <-> 183
c alp_Class_3_3 <-> 183
c alp_Class_3_6 <-> 183
c alp_Class_3_7 <-> 183
c Class_P300 <-> 183
c alp_Class_1_0 <-> 184
c alp_Class_1_1 <-> 184
c alp_Class_1_4 <-> 184
c alp_Class_1_8 <-> 184
c Class_P100 <-> 184
c tau_1_3_Class_3 <-> 242
c tau_1_3_Class_2 <-> 244
c tau_1_3_Class_1 <-> 245
c tau_1_3_Class_0 <-> 246
c tau_1_2_Class_3 <-> 259
c tau_1_2_Class_2 <-> 261
c tau_1_2_Class_1 <-> 262
c tau_1_2_Class_0 <-> 263
c tau_1_1_Class_3 <-> 264
c tau_1_1_Class_2 <-> 265
c tau_1_1_Class_1 <-> 266
c tau_1_1_Class_0 <-> 267
c tau_1_0_Class_3 <-> 268
c tau_1_0_Class_2 <-> 269
c tau_1_0_Class_1 <-> 270
c tau_1_0_Class_0 <-> 271
c tau_0_3_Class_3 <-> 337
c tau_0_3_Class_2 <-> 339
c tau_0_3_Class_1 <-> 341
c tau_0_3_Class_0 <-> 342
c tau_0_3_1 <-> 343
c tau_0_2_Class_3 <-> 364
c tau_0_2_Class_2 <-> 366
c tau_0_2_Class_1 <-> 368
c tau_0_2_Class_0 <-> 369
c tau_0_2_1 <-> 370
c tau_0_1_Class_3 <-> 371
c tau_0_1_Class_2 <-> 372
c tau_0_1_Class_1 <-> 373
c tau_0_1_Class_0 <-> 374
c tau_0_1_1 <-> 375
c tau_0_0_Class_3 <-> 376
c tau_0_0_Class_2 <-> 377
c tau_0_0_Class_1 <-> 378
c tau_0_0_Class_0 <-> 379
c tau_0_0_1 <-> 380
c lam_1_median_income <-> 384
c lam_1_population <-> 385
c lam_0_median_income <-> 389
c lam_0_population <-> 390
p wcnf 390 1064 11  
11 1 0
11 2 -3 0
11 2 -8 0
11 -2 8 3 0
11 -3 4 0
11 -3 384 0
11 3 -384 -4 0
11 -4 -264 0
11 -4 5 0
11 4 -5 264 0
11 -5 -265 0
11 -5 6 0
11 5 -6 265 0
11 -6 -266 0
11 -6 7 0
11 6 -7 266 0
11 7 267 0
11 7 -182 0
11 -7 182 -267 0
11 -8 9 0
11 -8 385 0
11 8 -385 -9 0
11 -9 -268 0
11 -9 10 0
11 9 -10 268 0
11 -10 -269 0
11 -10 11 0
11 10 -11 269 0
11 -11 -270 0
11 -11 12 0
11 11 -12 270 0
11 12 271 0
11 12 -182 0
11 -12 182 -271 0
11 13 -14 0
11 13 -21 0
11 -13 21 14 0
1 13 0
11 -14 15 0
11 -14 389 0
11 14 -389 -15 0
11 -15 -371 0
11 -15 16 0
11 15 -16 371 0
11 -16 -372 0
11 -16 17 0
11 16 -17 372 0
11 -17 -373 0
11 -17 18 0
11 17 -18 373 0
11 -18 19 0
11 -18 20 0
11 18 -20 -19 0
11 19 374 0
11 19 -182 0
11 -19 182 -374 0
11 20 -2 0
11 20 375 0
11 -20 -375 2 0
11 -21 22 0
11 -21 390 0
11 21 -390 -22 0
11 -22 -376 0
11 -22 23 0
11 22 -23 376 0
11 -23 -377 0
11 -23 24 0
11 23 -24 377 0
11 -24 -378 0
11 -24 25 0
11 24 -25 378 0
11 -25 26 0
11 -25 27 0
11 25 -27 -26 0
11 26 379 0
11 26 -182 0
11 -26 182 -379 0
11 27 -2 0
11 27 380 0
11 -27 -380 2 0
11 28 -29 0
11 28 -34 0
11 -28 34 29 0
11 -29 30 0
11 -29 384 0
11 29 -384 -30 0
11 -30 -268 0
11 -30 31 0
11 30 -31 268 0
11 -31 -269 0
11 -31 32 0
11 31 -32 269 0
11 -32 -271 0
11 -32 33 0
11 32 -33 271 0
11 33 270 0
11 33 -184 0
11 -33 184 -270 0
11 -34 35 0
11 -34 385 0
11 34 -385 -35 0
11 -35 -259 0
11 -35 36 0
11 35 -36 259 0
11 -36 -261 0
11 -36 37 0
11 36 -37 261 0
11 -37 38 0
11 -37 -263 0
11 37 263 -38 0
11 38 262 0
11 38 -184 0
11 -38 184 -262 0
11 39 -40 0
11 39 -47 0
11 -39 47 40 0
1 39 0
11 -40 41 0
11 -40 389 0
11 40 -389 -41 0
11 -41 -376 0
11 -41 42 0
11 41 -42 376 0
11 -42 -377 0
11 -42 43 0
11 42 -43 377 0
11 -43 44 0
11 -43 45 0
11 43 -45 -44 0
11 44 378 0
11 44 -184 0
11 -44 184 -378 0
11 -45 -379 0
11 -45 46 0
11 45 -46 379 0
11 46 380 0
11 46 -28 0
11 -46 28 -380 0
11 -47 48 0
11 -47 390 0
11 47 -390 -48 0
11 -48 -364 0
11 -48 49 0
11 48 -49 364 0
11 -49 -366 0
11 -49 50 0
11 49 -50 366 0
11 -50 51 0
11 -50 52 0
11 50 -52 -51 0
11 51 368 0
11 51 -184 0
11 -51 184 -368 0
11 -52 -369 0
11 -52 53 0
11 52 -53 369 0
11 53 -28 0
11 53 370 0
11 -53 -370 28 0
11 54 -55 0
11 54 -60 0
11 -54 60 55 0
11 -55 56 0
11 -55 384 0
11 55 -384 -56 0
11 -56 57 0
11 -56 58 0
11 56 -58 -57 0
11 57 264 0
11 57 -183 0
11 -57 183 -264 0
11 -58 -265 0
11 -58 59 0
11 58 -59 265 0
11 -59 -266 0
11 -59 -267 0
11 59 267 266 0
11 -60 61 0
11 -60 385 0
11 60 -385 -61 0
11 -61 62 0
11 -61 63 0
11 61 -63 -62 0
11 62 259 0
11 62 -183 0
11 -62 183 -259 0
11 -63 -261 0
11 -63 64 0
11 63 -64 261 0
11 -64 -262 0
11 -64 -263 0
11 64 263 262 0
11 65 -66 0
11 65 -73 0
11 -65 73 66 0
1 65 0
11 -66 67 0
11 -66 389 0
11 66 -389 -67 0
11 -67 68 0
11 -67 69 0
11 67 -69 -68 0
11 68 371 0
11 68 -183 0
11 -68 183 -371 0
11 -69 -372 0
11 -69 70 0
11 69 -70 372 0
11 -70 -373 0
11 -70 71 0
11 70 -71 373 0
11 -71 -374 0
11 -71 72 0
11 71 -72 374 0
11 72 375 0
11 72 -54 0
11 -72 54 -375 0
11 -73 74 0
11 -73 390 0
11 73 -390 -74 0
11 -74 75 0
11 -74 76 0
11 74 -76 -75 0
11 75 364 0
11 75 -183 0
11 -75 183 -364 0
11 -76 -366 0
11 -76 77 0
11 76 -77 366 0
11 -77 -368 0
11 -77 78 0
11 77 -78 368 0
11 -78 -369 0
11 -78 79 0
11 78 -79 369 0
11 79 370 0
11 79 -54 0
11 -79 54 -370 0
11 80 -55 0
11 80 -81 0
11 -80 81 55 0
11 -81 56 0
11 -81 385 0
11 81 -385 -56 0
11 82 -83 0
11 82 -84 0
11 -82 84 83 0
1 82 0
11 -83 85 0
11 -83 389 0
11 83 -389 -85 0
11 -84 85 0
11 -84 390 0
11 84 -390 -85 0
11 -85 68 0
11 -85 86 0
11 85 -86 -68 0
11 -86 -372 0
11 -86 87 0
11 86 -87 372 0
11 -87 -373 0
11 -87 88 0
11 87 -88 373 0
11 -88 -374 0
11 -88 89 0
11 88 -89 374 0
11 89 375 0
11 89 -80 0
11 -89 80 -375 0
11 90 -91 0
11 90 -92 0
11 -90 92 91 0
11 -91 9 0
11 -91 384 0
11 91 -384 -9 0
11 -92 93 0
11 -92 385 0
11 92 -385 -93 0
11 -93 -259 0
11 -93 94 0
11 93 -94 259 0
11 -94 -261 0
11 -94 95 0
11 94 -95 261 0
11 -95 -262 0
11 -95 96 0
11 95 -96 262 0
11 96 263 0
11 96 -182 0
11 -96 182 -263 0
11 97 -98 0
11 97 -104 0
11 -97 104 98 0
1 97 0
11 -98 99 0
11 -98 389 0
11 98 -389 -99 0
11 -99 -376 0
11 -99 100 0
11 99 -100 376 0
11 -100 -377 0
11 -100 101 0
11 100 -101 377 0
11 -101 -378 0
11 -101 102 0
11 101 -102 378 0
11 -102 26 0
11 -102 103 0
11 102 -103 -26 0
11 103 380 0
11 103 -90 0
11 -103 90 -380 0
11 -104 105 0
11 -104 390 0
11 104 -390 -105 0
11 -105 -364 0
11 -105 106 0
11 105 -106 364 0
11 -106 -366 0
11 -106 107 0
11 106 -107 366 0
11 -107 -368 0
11 -107 108 0
11 107 -108 368 0
11 -108 109 0
11 -108 110 0
11 108 -110 -109 0
11 109 369 0
11 109 -182 0
11 -109 182 -369 0
11 110 370 0
11 110 -90 0
11 -110 90 -370 0
11 111 -29 0
11 111 -112 0
11 -111 112 29 0
11 -112 113 0
11 -112 385 0
11 112 -385 -113 0
11 -113 -242 0
11 -113 114 0
11 113 -114 242 0
11 -114 -244 0
11 -114 115 0
11 114 -115 244 0
11 -115 116 0
11 -115 -246 0
11 115 246 -116 0
11 116 245 0
11 116 -184 0
11 -116 184 -245 0
11 117 -118 0
11 117 -124 0
11 -117 124 118 0
1 117 0
11 -118 119 0
11 -118 389 0
11 118 -389 -119 0
11 -119 -376 0
11 -119 120 0
11 119 -120 376 0
11 -120 -377 0
11 -120 121 0
11 120 -121 377 0
11 -121 44 0
11 -121 122 0
11 121 -122 -44 0
11 -122 -379 0
11 -122 123 0
11 122 -123 379 0
11 123 380 0
11 123 -111 0
11 -123 111 -380 0
11 -124 125 0
11 -124 390 0
11 124 -390 -125 0
11 -125 -337 0
11 -125 126 0
11 125 -126 337 0
11 -126 -339 0
11 -126 127 0
11 126 -127 339 0
11 -127 128 0
11 -127 129 0
11 127 -129 -128 0
11 128 341 0
11 128 -184 0
11 -128 184 -341 0
11 -129 -342 0
11 -129 130 0
11 129 -130 342 0
11 130 -111 0
11 130 343 0
11 -130 -343 111 0
11 131 -81 0
11 131 -132 0
11 -131 132 81 0
11 -132 133 0
11 -132 384 0
11 132 -384 -133 0
11 -133 134 0
11 -133 135 0
11 133 -135 -134 0
11 134 268 0
11 134 -183 0
11 -134 183 -268 0
11 -135 -269 0
11 -135 136 0
11 135 -136 269 0
11 -136 -270 0
11 -136 -271 0
11 136 271 270 0
11 137 -138 0
11 137 -145 0
11 -137 145 138 0
1 137 0
11 -138 139 0
11 -138 389 0
11 138 -389 -139 0
11 -139 140 0
11 -139 141 0
11 139 -141 -140 0
11 140 376 0
11 140 -183 0
11 -140 183 -376 0
11 -141 -377 0
11 -141 142 0
11 141 -142 377 0
11 -142 -378 0
11 -142 143 0
11 142 -143 378 0
11 -143 -379 0
11 -143 144 0
11 143 -144 379 0
11 144 380 0
11 144 -131 0
11 -144 131 -380 0
11 -145 146 0
11 -145 390 0
11 145 -390 -146 0
11 -146 68 0
11 -146 147 0
11 146 -147 -68 0
11 -147 -372 0
11 -147 148 0
11 147 -148 372 0
11 -148 -373 0
11 -148 149 0
11 148 -149 373 0
11 -149 -374 0
11 -149 150 0
11 149 -150 374 0
11 150 375 0
11 150 -131 0
11 -150 131 -375 0
11 151 -112 0
11 151 -152 0
11 -151 152 112 0
11 -152 153 0
11 -152 384 0
11 152 -384 -153 0
11 -153 -264 0
11 -153 154 0
11 153 -154 264 0
11 -154 -265 0
11 -154 155 0
11 154 -155 265 0
11 -155 -267 0
11 -155 156 0
11 155 -156 267 0
11 156 266 0
11 156 -184 0
11 -156 184 -266 0
11 157 -158 0
11 157 -165 0
11 -157 165 158 0
1 157 0
11 -158 159 0
11 -158 389 0
11 158 -389 -159 0
11 -159 -371 0
11 -159 160 0
11 159 -160 371 0
11 -160 -372 0
11 -160 161 0
11 160 -161 372 0
11 -161 162 0
11 -161 163 0
11 161 -163 -162 0
11 162 373 0
11 162 -184 0
11 -162 184 -373 0
11 -163 -374 0
11 -163 164 0
11 163 -164 374 0
11 164 375 0
11 164 -151 0
11 -164 151 -375 0
11 -165 166 0
11 -165 390 0
11 165 -390 -166 0
11 -166 -337 0
11 -166 167 0
11 166 -167 337 0
11 -167 -339 0
11 -167 168 0
11 167 -168 339 0
11 -168 128 0
11 -168 169 0
11 168 -169 -128 0
11 -169 -342 0
11 -169 170 0
11 169 -170 342 0
11 170 343 0
11 170 -151 0
11 -170 151 -343 0
11 171 -29 0
11 171 -172 0
11 -171 172 29 0
11 -172 30 0
11 -172 385 0
11 172 -385 -30 0
11 173 -174 0
11 173 -175 0
11 -173 175 174 0
1 173 0
11 -174 176 0
11 -174 389 0
11 174 -389 -176 0
11 -175 176 0
11 -175 390 0
11 175 -390 -176 0
11 -176 -376 0
11 -176 177 0
11 176 -177 376 0
11 -177 -377 0
11 -177 178 0
11 177 -178 377 0
11 -178 44 0
11 -178 179 0
11 178 -179 -44 0
11 -179 -379 0
11 -179 180 0
11 179 -180 379 0
11 180 380 0
11 180 -171 0
11 -180 171 -380 0
11 -181 0
11 185 384 0
11 185 -186 0
11 -185 186 -384 0
11 185 0
11 -186 -242 0
11 -186 187 0
11 186 -187 242 0
11 -187 -244 0
11 -187 188 0
11 187 -188 244 0
11 -188 -245 0
11 -188 189 0
11 188 -189 245 0
11 -189 -246 0
11 -189 190 0
11 189 -190 246 0
11 -190 -259 0
11 -190 63 0
11 190 -63 259 0
11 191 389 0
11 191 -192 0
11 -191 192 -389 0
11 191 0
11 -192 -337 0
11 -192 193 0
11 192 -193 337 0
11 -193 -339 0
11 -193 194 0
11 193 -194 339 0
11 -194 -341 0
11 -194 195 0
11 194 -195 341 0
11 -195 -342 0
11 -195 196 0
11 195 -196 342 0
11 -196 -343 0
11 -196 197 0
11 196 -197 343 0
11 -197 -364 0
11 -197 198 0
11 197 -198 364 0
11 -198 -366 0
11 -198 199 0
11 198 -199 366 0
11 -199 -368 0
11 -199 200 0
11 199 -200 368 0
11 -200 -369 0
11 -200 -370 0
11 200 370 369 0
11 201 384 0
11 201 -202 0
11 -201 202 -384 0
11 201 0
11 -202 203 0
11 -202 215 0
11 202 -215 -203 0
11 203 -204 0
11 203 -205 0
11 -203 205 204 0
11 -204 58 0
11 -204 264 0
11 204 -264 -58 0
11 205 -206 0
11 205 -208 0
11 -205 208 206 0
11 -206 207 0
11 -206 265 0
11 206 -265 -207 0
11 -207 -264 0
11 -207 59 0
11 207 -59 264 0
11 208 -209 0
11 208 -212 0
11 -208 212 209 0
11 -209 210 0
11 -209 266 0
11 209 -266 -210 0
11 -210 -264 0
11 -210 211 0
11 210 -211 264 0
11 -211 -265 0
11 -211 -267 0
11 211 267 265 0
11 -212 213 0
11 -212 267 0
11 212 -267 -213 0
11 -213 -264 0
11 -213 214 0
11 213 -214 264 0
11 -214 -265 0
11 -214 -266 0
11 214 266 265 0
11 215 -216 0
11 215 -217 0
11 -215 217 216 0
11 -216 135 0
11 -216 268 0
11 216 -268 -135 0
11 217 -218 0
11 217 -220 0
11 -217 220 218 0
11 -218 219 0
11 -218 269 0
11 218 -269 -219 0
11 -219 -268 0
11 -219 136 0
11 219 -136 268 0
11 220 -221 0
11 220 -224 0
11 -220 224 221 0
11 -221 222 0
11 -221 270 0
11 221 -270 -222 0
11 -222 -268 0
11 -222 223 0
11 222 -223 268 0
11 -223 -269 0
11 -223 -271 0
11 223 271 269 0
11 -224 225 0
11 -224 271 0
11 224 -271 -225 0
11 -225 -268 0
11 -225 226 0
11 225 -226 268 0
11 -226 -269 0
11 -226 -270 0
11 226 270 269 0
11 227 385 0
11 227 -228 0
11 -227 228 -385 0
11 227 0
11 -228 229 0
11 -228 247 0
11 228 -247 -229 0
11 229 -230 0
11 229 -232 0
11 -229 232 230 0
11 -230 231 0
11 -230 242 0
11 230 -242 -231 0
11 -231 -244 0
11 -231 235 0
11 231 -235 244 0
11 232 -233 0
11 232 -236 0
11 -232 236 233 0
11 -233 234 0
11 -233 244 0
11 233 -244 -234 0
11 -234 -242 0
11 -234 235 0
11 234 -235 242 0
11 -235 -245 0
11 -235 -246 0
11 235 246 245 0
11 236 -237 0
11 236 -240 0
11 -236 240 237 0
11 -237 238 0
11 -237 245 0
11 237 -245 -238 0
11 -238 -242 0
11 -238 239 0
11 238 -239 242 0
11 -239 -244 0
11 -239 -246 0
11 239 246 244 0
11 -240 241 0
11 -240 246 0
11 240 -246 -241 0
11 -241 -242 0
11 -241 243 0
11 241 -243 242 0
11 -243 -244 0
11 -243 -245 0
11 243 245 244 0
11 -247 202 0
11 -247 248 0
11 247 -248 -202 0
11 248 -249 0
11 248 -250 0
11 -248 250 249 0
11 -249 63 0
11 -249 259 0
11 249 -259 -63 0
11 250 -251 0
11 250 -253 0
11 -250 253 251 0
11 -251 252 0
11 -251 261 0
11 251 -261 -252 0
11 -252 -259 0
11 -252 64 0
11 252 -64 259 0
11 253 -254 0
11 253 -257 0
11 -253 257 254 0
11 -254 255 0
11 -254 262 0
11 254 -262 -255 0
11 -255 -259 0
11 -255 256 0
11 255 -256 259 0
11 -256 -261 0
11 -256 -263 0
11 256 263 261 0
11 -257 258 0
11 -257 263 0
11 257 -263 -258 0
11 -258 -259 0
11 -258 260 0
11 258 -260 259 0
11 -260 -261 0
11 -260 -262 0
11 260 262 261 0
11 272 389 0
11 272 -273 0
11 -272 273 -389 0
11 272 0
11 -273 274 0
11 -273 295 0
11 273 -295 -274 0
11 274 -275 0
11 274 -291 0
11 -274 291 275 0
11 275 -276 0
11 275 -278 0
11 -275 278 276 0
11 -276 277 0
11 -276 371 0
11 276 -371 -277 0
11 -277 -375 0
11 -277 293 0
11 277 -293 375 0
11 278 -279 0
11 278 -282 0
11 -278 282 279 0
11 -279 280 0
11 -279 372 0
11 279 -372 -280 0
11 -280 -375 0
11 -280 281 0
11 280 -281 375 0
11 -281 -371 0
11 -281 294 0
11 281 -294 371 0
11 282 -283 0
11 282 -287 0
11 -282 287 283 0
11 -283 284 0
11 -283 373 0
11 283 -373 -284 0
11 -284 -375 0
11 -284 285 0
11 284 -285 375 0
11 -285 -371 0
11 -285 286 0
11 285 -286 371 0
11 -286 -372 0
11 -286 -374 0
11 286 374 372 0
11 -287 288 0
11 -287 374 0
11 287 -374 -288 0
11 -288 -375 0
11 -288 289 0
11 288 -289 375 0
11 -289 -371 0
11 -289 290 0
11 289 -290 371 0
11 -290 -372 0
11 -290 -373 0
11 290 373 372 0
11 -291 292 0
11 -291 375 0
11 291 -375 -292 0
11 -292 -371 0
11 -292 293 0
11 292 -293 371 0
11 -293 -372 0
11 -293 294 0
11 293 -294 372 0
11 -294 -373 0
11 -294 -374 0
11 294 374 373 0
11 295 -296 0
11 295 -312 0
11 -295 312 296 0
11 296 -297 0
11 296 -299 0
11 -296 299 297 0
11 -297 298 0
11 -297 376 0
11 297 -376 -298 0
11 -298 -380 0
11 -298 314 0
11 298 -314 380 0
11 299 -300 0
11 299 -303 0
11 -299 303 300 0
11 -300 301 0
11 -300 377 0
11 300 -377 -301 0
11 -301 -380 0
11 -301 302 0
11 301 -302 380 0
11 -302 -376 0
11 -302 315 0
11 302 -315 376 0
11 303 -304 0
11 303 -308 0
11 -303 308 304 0
11 -304 305 0
11 -304 378 0
11 304 -378 -305 0
11 -305 -380 0
11 -305 306 0
11 305 -306 380 0
11 -306 -376 0
11 -306 307 0
11 306 -307 376 0
11 -307 -377 0
11 -307 -379 0
11 307 379 377 0
11 -308 309 0
11 -308 379 0
11 308 -379 -309 0
11 -309 -380 0
11 -309 310 0
11 309 -310 380 0
11 -310 -376 0
11 -310 311 0
11 310 -311 376 0
11 -311 -377 0
11 -311 -378 0
11 311 378 377 0
11 -312 313 0
11 -312 380 0
11 312 -380 -313 0
11 -313 -376 0
11 -313 314 0
11 313 -314 376 0
11 -314 -377 0
11 -314 315 0
11 314 -315 377 0
11 -315 -378 0
11 -315 -379 0
11 315 379 378 0
11 316 390 0
11 316 -317 0
11 -316 317 -390 0
11 316 0
11 -317 318 0
11 -317 344 0
11 317 -344 -318 0
11 318 -319 0
11 318 -335 0
11 -318 335 319 0
11 319 -320 0
11 319 -322 0
11 -319 322 320 0
11 -320 321 0
11 -320 337 0
11 320 -337 -321 0
11 -321 -343 0
11 -321 338 0
11 321 -338 343 0
11 322 -323 0
11 322 -326 0
11 -322 326 323 0
11 -323 324 0
11 -323 339 0
11 323 -339 -324 0
11 -324 -343 0
11 -324 325 0
11 324 -325 343 0
11 -325 -337 0
11 -325 340 0
11 325 -340 337 0
11 326 -327 0
11 326 -331 0
11 -326 331 327 0
11 -327 328 0
11 -327 341 0
11 327 -341 -328 0
11 -328 -343 0
11 -328 329 0
11 328 -329 343 0
11 -329 -337 0
11 -329 330 0
11 329 -330 337 0
11 -330 -339 0
11 -330 -342 0
11 330 342 339 0
11 -331 332 0
11 -331 342 0
11 331 -342 -332 0
11 -332 -343 0
11 -332 333 0
11 332 -333 343 0
11 -333 -337 0
11 -333 334 0
11 333 -334 337 0
11 -334 -339 0
11 -334 -341 0
11 334 341 339 0
11 -335 336 0
11 -335 343 0
11 335 -343 -336 0
11 -336 -337 0
11 -336 338 0
11 336 -338 337 0
11 -338 -339 0
11 -338 340 0
11 338 -340 339 0
11 -340 -341 0
11 -340 -342 0
11 340 342 341 0
11 -344 273 0
11 -344 345 0
11 344 -345 -273 0
11 345 -346 0
11 345 -362 0
11 -345 362 346 0
11 346 -347 0
11 346 -349 0
11 -346 349 347 0
11 -347 348 0
11 -347 364 0
11 347 -364 -348 0
11 -348 -370 0
11 -348 365 0
11 348 -365 370 0
11 349 -350 0
11 349 -353 0
11 -349 353 350 0
11 -350 351 0
11 -350 366 0
11 350 -366 -351 0
11 -351 -370 0
11 -351 352 0
11 351 -352 370 0
11 -352 -364 0
11 -352 367 0
11 352 -367 364 0
11 353 -354 0
11 353 -358 0
11 -353 358 354 0
11 -354 355 0
11 -354 368 0
11 354 -368 -355 0
11 -355 -370 0
11 -355 356 0
11 355 -356 370 0
11 -356 -364 0
11 -356 357 0
11 356 -357 364 0
11 -357 -366 0
11 -357 -369 0
11 357 369 366 0
11 -358 359 0
11 -358 369 0
11 358 -369 -359 0
11 -359 -370 0
11 -359 360 0
11 359 -360 370 0
11 -360 -364 0
11 -360 361 0
11 360 -361 364 0
11 -361 -366 0
11 -361 -368 0
11 361 368 366 0
11 -362 363 0
11 -362 370 0
11 362 -370 -363 0
11 -363 -364 0
11 -363 365 0
11 363 -365 364 0
11 -365 -366 0
11 -365 367 0
11 365 -367 366 0
11 -367 -368 0
11 -367 -369 0
11 367 369 368 0
11 381 -382 0
11 381 -383 0
11 -381 383 382 0
11 381 0
11 -382 -385 0
11 -382 384 0
11 382 -384 385 0
11 -383 -384 0
11 -383 385 0
11 383 -385 384 0
11 386 -387 0
11 386 -388 0
11 -386 388 387 0
11 386 0
11 -387 -390 0
11 -387 389 0
11 387 -389 390 0
11 -388 -389 0
11 -388 390 0
11 388 -390 389 0
